30
2
20005
136 136
false
0.25
27 42 45 10 10 42 38 29 16 36 45 28 8 2 37 19 8 1 39 40 13 7 37 29 22 13 10 44 15 15
33 29 35 17 11 34 35 36 38 4 50 44 1 9 45 4 29 34 6 15 43 36 14 50 14 37 16 40 23 2
7 35 37 81 62 43 96 67 41 35 43 35 38 59 88 1 90 73 73 22 72 83 32 77 46 78 84 77 73 80
0 70 0 0 0 34 0 0 0 52 0 31 0 0 0 46 0 0 89 0 0 0 0 0 0 74 0 11 0 0
0 0 0 17 0 0 0 63 0 56 88 0 0 0 0 0 63 71 0 0 0 56 73 14 0 0 0 0 0
0 0 0 57 0 0 0 0 0 0 0 0 0 0 0 0 0 0 0 54 0 0 0 0 0 80 0 0
0 0 0 0 0 0 0 75 100 0 0 0 0 0 0 75 0 0 0 0 0 46 0 0 0 0 83
0 0 30 0 0 0 93 0 94 0 0 0 0 0 0 28 0 0 0 0 0 0 46 96 0 22
0 0 0 0 0 0 0 0 0 0 0 0 45 0 30 0 0 0 92 99 0 54 0 0 0
0 71 0 0 0 60 0 0 0 0 0 0 0 0 0 0 70 0 76 0 0 0 0 94
0 0 0 0 43 30 64 28 0 0 69 0 0 0 71 0 0 92 0 0 94 0 65
0 0 29 0 0 0 0 0 0 9 68 0 0 0 0 15 88 0 0 0 0 0
0 0 0 0 0 0 0 74 0 0 0 0 0 0 0 75 64 0 0 0 0
0 0 0 0 0 0 0 0 0 7 0 0 0 0 8 0 44 94 0 0
0 0 0 0 0 0 0 0 0 0 0 100 59 0 35 0 0 0 0
0 0 0 97 0 0 0 0 0 38 0 0 90 0 0 0 0 0
0 0 0 0 0 0 91 37 0 95 0 0 0 0 39 0 0
0 0 90 27 0 0 0 22 0 0 82 0 39 0 0 0
0 0 0 0 0 0 0 0 0 52 0 0 0 17 0
0 0 0 0 72 0 0 8 57 0 0 0 92 41
0 0 23 0 0 0 0 0 0 11 74 0 0
0 64 0 0 0 0 0 0 0 0 0 3
0 0 0 94 0 35 71 91 0 0 0
0 0 41 0 85 94 0 0 0 64
0 0 0 0 17 0 0 26 0
0 0 0 0 0 0 78 0
0 89 0 21 0 85 47
0 37 0 0 0 0
0 0 0 0 0
0 0 0 32
0 31 0
0 0
0 0 0 0 0 0 0 0 0 93 0 0 0 97 0 0 0 0 0 0 0 0 0 33 0 37 0 45 0
0 91 0 0 0 10 73 0 0 55 29 0 0 0 0 0 71 0 0 0 94 0 0 0 0 0 0 0
0 0 0 0 7 0 49 0 0 0 0 0 0 57 63 70 94 0 0 0 69 88 0 0 0 0 0
0 32 0 0 57 30 37 0 0 0 0 0 38 0 11 0 0 0 99 59 0 0 59 0 0 0
0 0 0 0 0 0 0 82 0 0 0 53 0 0 0 0 0 92 42 0 0 0 55 54 0
0 0 0 0 0 0 0 0 0 21 0 0 87 0 0 0 96 0 0 0 0 16 0 33
0 8 9 80 0 0 0 0 0 0 0 49 0 0 0 0 0 96 42 19 0 0 0
0 95 0 0 0 0 66 0 76 4 0 0 0 0 11 0 88 24 0 0 0 75
0 88 35 0 0 0 0 0 20 0 0 0 0 0 0 0 0 31 1 70 0
0 0 0 0 0 0 0 0 0 0 15 78 25 0 0 47 68 0 0 95
0 0 0 0 0 0 28 99 0 0 0 0 0 36 0 0 0 0 0
0 0 32 15 0 0 0 0 0 59 0 0 0 0 0 0 0 0
0 0 99 0 0 6 0 0 20 0 0 0 0 0 0 0 0
0 0 0 0 0 0 0 27 16 0 0 43 0 0 0 0
0 0 0 0 0 0 0 0 0 0 0 0 0 0 0
0 60 71 0 0 0 0 0 0 0 0 0 93 0
0 0 60 0 0 0 98 0 63 0 0 0 0
0 0 0 0 0 0 0 0 78 57 59 0
0 73 91 54 30 0 0 0 38 71 0
0 0 0 0 0 0 0 0 0 0
0 12 0 73 0 10 0 0 89
0 0 87 0 0 10 0 5
0 0 0 0 0 0 0
0 0 0 0 0 89
0 0 36 0 0
0 0 0 10
0 0 0
0 0
0
0 5 0 0 0 0 17 34 0 0 0 39 0 0 0 66 0 0 0 0 0 30 0 0 0 0 66 0
0 0 84 0 0 7 0 0 0 0 0 0 53 41 0 0 0 0 0 70 27 0 0 12 0 0 0
0 0 0 0 0 18 0 0 36 0 0 28 0 0 0 46 0 0 31 13 54 68 11 0 0 0
0 70 0 0 0 0 0 0 83 36 0 0 0 0 0 0 0 13 0 0 98 0 0 39 0
0 0 0 20 0 0 48 44 0 0 0 0 0 0 0 0 0 62 0 0 0 0 0 0
0 0 0 0 0 0 0 0 0 0 29 0 0 0 0 0 0 0 83 0 0 0 0
0 0 0 85 31 50 45 76 0 0 48 88 28 0 49 0 0 0 0 0 0 0
0 0 32 24 0 0 0 0 0 0 88 0 67 7 54 0 0 63 0 0 0
0 0 1 41 0 0 98 0 0 0 0 0 0 0 0 0 86 69 0 36
0 0 52 0 0 0 8 75 0 0 45 69 0 17 23 87 38 0 70
0 0 1 0 0 0 0 17 65 0 0 14 0 0 0 74 0 0
0 0 0 0 61 19 0 0 23 0 0 68 59 48 0 0 44
0 0 39 5 15 43 0 0 0 49 0 0 0 0 61 3
0 0 0 0 0 0 97 0 0 91 0 0 0 90 98
0 0 0 37 0 93 0 0 0 0 0 75 59 0
0 0 0 91 0 0 0 91 0 0 0 0 0
0 0 0 0 68 0 0 0 0 0 0 0
0 0 0 0 0 0 0 96 62 0 0
0 0 0 0 0 0 77 0 0 71
0 46 0 0 0 0 0 0 0
0 0 0 84 0 8 0 40
0 0 0 0 0 0 0
0 0 0 52 55 0
0 0 0 0 0
0 0 0 97
0 0 0
0 0
0
0 0 0 0 90 0 0 31 70 0 0 0 61 22 0 0 0 0 0 77 0 0 0 0 0 0 8
0 0 33 0 13 0 0 0 0 0 0 0 0 0 0 0 0 39 0 0 0 0 63 26 47 0
0 0 0 0 0 62 0 25 0 28 90 0 0 0 0 0 48 22 0 0 60 0 0 0 0
0 0 0 76 0 0 0 0 67 0 0 0 18 37 44 0 0 0 0 0 93 0 81 0
0 0 0 0 0 0 97 0 0 70 0 0 0 0 0 0 0 0 0 45 0 24 0
0 0 67 0 0 0 0 93 83 65 0 86 88 0 0 99 59 0 0 28 0 0
0 78 0 0 0 0 0 0 0 0 0 0 0 0 86 70 0 0 0 83 0
0 0 0 76 0 0 0 0 0 0 0 0 0 0 0 0 66 0 0 0
0 0 0 0 0 44 0 0 26 0 0 91 7 81 0 80 0 0 0
0 0 0 0 0 0 0 0 0 0 0 10 0 0 74 40 0 0
0 0 0 77 0 0 0 0 0 72 0 57 0 70 24 22 0
0 62 0 0 41 0 0 0 0 0 59 24 0 0 16 95
0 0 0 48 36 0 0 0 0 0 39 0 0 0 0
0 0 0 0 0 0 0 0 0 0 0 0 0 0
0 0 93 0 0 0 0 0 0 0 46 0 0
0 0 0 0 70 0 95 0 0 20 0 3
0 71 0 2 60 0 0 100 0 82 0
0 0 88 0 0 0 21 0 0 0
0 0 0 0 0 70 60 0 0
0 0 0 49 0 0 0 0
0 72 9 0 0 0 0
0 0 0 0 0 0
0 31 0 0 77
0 0 0 0
0 0 0
0 0
0
0 0 0 0 0 76 0 0 0 0 0 0 0 0 0 0 0 0 74 6 0 0 0 0 51 0
0 0 0 0 0 80 0 0 0 0 0 4 0 0 0 0 76 0 0 0 0 0 44 0 0
0 0 0 26 0 64 0 0 0 0 0 55 0 0 0 0 0 0 48 0 0 0 0 30
0 0 0 0 0 0 0 0 0 0 0 55 0 0 45 0 0 0 0 0 0 0 0
0 0 0 0 0 0 0 0 0 0 45 19 82 0 76 0 3 0 18 53 61 7
0 75 0 0 0 73 0 0 0 0 0 69 0 0 0 21 0 0 38 0 0
0 0 22 0 0 0 0 0 0 30 85 0 64 0 18 0 0 0 0 0
0 0 0 0 7 0 0 0 0 0 8 7 0 0 0 0 31 0 62
0 48 77 0 71 10 0 0 0 0 0 0 0 0 0 0 0 0
0 0 0 15 0 0 0 0 0 0 0 85 0 65 33 0 1
0 0 0 0 0 0 57 0 0 0 0 0 0 0 0 0
0 0 0 0 73 0 0 0 0 0 0 0 0 90 0
0 71 0 0 50 0 0 0 0 61 34 90 99 0
0 0 23 0 0 0 0 0 0 0 0 0 0
0 35 0 0 0 0 0 86 43 0 0 0
0 0 0 0 0 0 0 0 0 0 55
0 0 0 35 0 0 0 0 49 0
0 0 0 0 77 0 0 0 0
0 0 0 0 0 0 0 84
0 0 0 0 23 20 0
0 24 0 4 0 0
0 0 0 0 18
0 0 0 0
0 0 0
0 0
0
0 0 0 0 0 46 33 0 54 0 0 0 0 0 51 0 98 0 0 0 0 0 0 0 19
0 0 0 0 0 0 0 1 0 43 0 0 0 0 0 0 0 0 0 0 28 0 45 0
0 0 0 40 75 0 0 16 0 0 72 0 0 28 0 48 3 19 78 0 0 0 0
0 0 46 12 0 76 0 0 0 31 0 83 0 0 0 25 0 0 0 0 0 0
0 0 0 0 0 21 0 52 0 0 0 84 0 0 0 0 0 3 0 76 0
0 68 0 5 0 0 0 0 0 33 8 0 0 49 0 0 0 0 0 0
0 52 0 0 94 77 0 0 72 0 0 0 0 0 0 60 0 0 0
0 0 0 0 0 0 93 0 0 35 5 0 0 95 0 0 0 62
0 0 0 49 34 0 0 0 0 0 0 0 0 0 0 0 74
0 79 0 0 0 4 0 0 0 0 0 0 0 51 0 0
0 0 0 0 0 0 0 0 90 0 97 90 0 0 0
0 0 0 0 0 17 0 0 0 0 88 0 0 0
0 34 0 48 0 0 0 0 0 0 0 22 0
0 50 81 10 0 0 0 0 0 0 0 0
0 0 6 0 0 0 0 0 0 86 69
0 0 75 0 0 0 0 0 0 0
0 0 0 25 75 0 61 81 0
0 0 0 0 0 0 29 0
0 0 0 0 0 0 0
0 0 0 0 0 1
0 0 0 0 10
0 23 0 0
0 0 10
0 0
0
0 0 0 0 0 0 44 0 0 0 0 0 99 23 0 56 0 0 38 71 4 0 0 0
0 72 33 0 0 24 0 0 0 0 0 0 0 0 0 3 0 0 97 57 0 0 0
0 0 0 0 51 0 0 0 0 100 0 0 0 0 0 0 34 0 0 0 0 0
0 0 0 0 0 45 0 0 55 32 0 0 0 60 0 0 0 0 67 39 0
0 75 16 51 91 0 0 92 0 0 0 0 20 0 67 97 57 0 0 18
0 0 0 0 0 0 0 79 0 0 82 0 89 0 0 25 0 0 0
0 78 0 0 0 62 0 0 0 0 0 0 76 0 0 0 68 0
0 0 0 0 0 0 0 0 33 0 0 0 44 0 0 0 89
0 0 0 92 0 0 0 0 11 0 0 0 61 0 0 49
0 0 0 50 0 27 0 0 0 0 98 22 56 0 0
0 43 37 0 64 0 0 0 0 0 94 0 0 0
0 0 0 0 43 0 0 0 84 30 37 0 0
0 57 75 0 0 55 0 0 54 0 0 0
0 0 0 0 39 0 0 0 95 0 0
0 0 75 0 0 0 76 0 0 0
0 0 0 0 2 13 0 0 93
0 0 0 91 0 0 0 0
0 0 0 0 68 74 0
0 0 25 0 0 24
0 0 0 0 39
0 0 0 0
0 0 96
0 0
0
0 2 0 0 0 0 0 0 0 0 0 0 0 0 0 42 22 0 15 0 0 0 21
0 74 66 0 0 0 0 40 0 0 0 0 0 13 0 0 0 26 0 0 60 0
0 0 0 0 0 63 82 0 0 0 0 0 19 0 0 0 0 0 0 0 0
0 0 0 0 0 0 0 0 0 0 0 0 0 81 0 0 0 0 0 24
0 0 0 30 0 0 0 0 24 0 0 0 0 0 100 0 0 0 0
0 0 0 0 0 20 41 0 43 0 10 0 0 0 0 0 0 0
0 0 0 0 0 29 0 0 0 88 0 0 0 0 0 0 0
0 0 0 0 0 0 90 21 24 73 0 0 17 0 0 36
0 0 53 0 0 0 0 96 88 0 0 0 62 0 0
0 0 27 0 50 0 0 59 0 0 13 25 0 0
0 0 0 0 0 0 60 0 0 0 0 0 92
0 0 0 0 0 0 84 0 0 0 0 0
0 0 0 0 0 0 0 0 0 0 0
0 0 0 0 5 95 37 0 0 0
0 0 0 0 69 79 0 0 41
0 0 0 0 0 0 69 0
0 53 0 35 0 0 0
0 45 95 0 0 0
0 62 0 41 0
0 1 0 0
0 0 0
0 0
0
0 44 47 0 0 0 0 0 0 0 0 0 0 0 0 0 85 39 0 0 0 0
0 0 0 0 0 88 0 0 0 22 0 0 0 0 27 26 51 0 40 0 0
0 0 0 16 0 15 0 0 0 0 0 0 0 0 0 0 0 0 0 0
0 0 0 0 0 0 0 0 0 0 78 0 0 0 0 0 0 62 0
0 0 0 0 0 0 24 0 90 0 0 0 0 0 0 95 0 0
0 0 0 7 0 0 0 0 0 0 0 0 0 0 9 0 0
0 0 0 0 72 0 57 0 78 0 0 81 0 0 0 0
0 46 0 0 0 0 29 45 0 0 0 0 0 0 0
0 0 0 0 0 0 58 19 0 0 0 0 9 58
0 69 0 0 0 5 0 0 0 0 0 0 0
0 0 0 0 0 0 66 0 0 0 56 0
0 0 0 0 0 0 45 0 0 0 71
0 0 0 0 26 0 50 52 0 0
0 0 0 0 0 0 0 0 0
0 4 93 0 0 0 90 0
0 0 5 59 75 0 0
0 0 0 0 57 17
0 0 0 0 0
0 0 0 0
0 34 0
0 0
0
0 0 0 0 80 0 25 0 0 0 0 0 83 0 68 0 0 0 0 86 0
0 0 0 0 10 0 0 87 0 0 92 0 0 99 0 0 0 0 61 71
0 0 0 0 0 0 0 0 0 0 0 0 54 0 39 0 55 0 0
0 0 0 0 18 0 42 0 76 0 0 0 0 0 65 0 0 0
0 83 0 0 0 0 0 68 0 0 0 0 0 92 0 0 0
0 0 0 0 63 0 64 0 0 0 0 55 0 40 0 0
0 39 0 0 0 14 0 0 100 0 60 0 0 0 0
0 8 94 0 0 0 36 0 10 81 24 0 0 0
0 100 0 0 14 69 0 0 0 0 0 0 10
0 0 0 0 0 57 0 0 72 65 0 0
0 63 0 67 0 0 0 0 0 0 0
0 66 0 55 65 0 31 39 0 0
0 0 0 0 44 11 0 60 0
0 0 0 55 10 0 0 0
0 20 0 0 92 0 29
0 0 0 0 0 94
0 99 78 0 65
0 0 82 0
0 0 0
0 0
0
0 18 9 0 0 0 0 0 0 0 0 0 0 0 0 0 0 0 0 0
0 0 0 0 90 74 62 14 0 100 0 0 0 0 0 0 66 80 0
0 0 0 54 19 0 0 0 0 48 0 0 0 0 0 0 0 0
0 0 0 0 81 40 0 0 55 0 0 0 0 0 2 0 0
0 0 0 0 0 0 0 0 52 0 0 0 41 0 9 18
0 0 0 51 0 0 7 0 0 0 0 0 29 0 0
0 0 0 0 0 0 0 57 0 0 0 0 0 68
0 76 0 0 82 0 0 0 0 0 0 0 36
0 0 18 0 0 0 0 87 93 0 0 0
0 0 51 0 0 0 35 73 0 0 0
0 0 0 0 0 59 0 0 0 0
0 61 100 0 0 0 0 0 0
0 10 0 0 95 0 0 0
0 0 0 0 0 52 0
0 0 58 0 0 1
0 0 0 0 0
0 0 0 0
0 70 0
0 50
0
0 6 0 84 21 0 0 0 0 0 0 0 0 0 0 0 0 0 48
0 0 0 0 0 22 77 0 0 0 0 97 0 0 0 0 0 0
0 77 0 0 0 0 0 0 84 0 0 0 69 0 82 47 0
0 0 0 0 0 0 0 68 0 0 0 0 0 0 0 0
0 0 0 0 0 0 0 0 0 0 0 0 0 3 0
0 0 0 0 0 27 0 0 10 0 0 0 0 0
0 0 91 51 10 0 0 0 0 0 0 0 0
0 0 0 0 69 20 0 0 46 0 42 0
0 100 63 0 0 0 0 0 0 0 0
0 0 0 0 0 0 0 26 0 41
0 0 0 68 0 0 68 0 7
0 17 0 44 0 0 50 0
0 0 0 0 0 0 0
0 74 34 0 0 0
0 0 0 0 77
0 0 0 64
0 0 0
0 0
0
0 0 0 0 1 0 0 0 0 0 0 0 0 0 0 0 94 0
0 76 0 94 42 69 0 0 0 66 0 0 0 0 0 41 18
0 54 0 0 0 0 0 50 0 0 20 0 0 34 0 0
0 0 0 0 0 57 23 0 80 0 0 0 0 0 0
0 0 0 0 0 0 0 0 0 0 0 0 0 0
0 0 0 0 0 0 62 0 0 0 29 55 0
0 0 0 0 0 43 37 0 11 0 36 0
0 0 0 48 50 85 27 0 0 0 0
0 0 0 0 0 0 0 60 79 0
0 0 0 75 0 0 0 0 65
0 0 0 0 0 0 43 0
0 43 85 0 0 0 0
0 0 0 0 0 0
0 52 46 0 0
0 0 70 0
0 0 0
0 0
0
0 0 0 0 32 0 0 0 0 0 60 0 0 0 20 2 40
0 0 0 0 0 0 0 25 0 0 0 0 87 33 0 0
0 0 0 0 0 0 0 0 0 0 0 76 36 0 0
0 0 0 0 0 51 58 0 48 0 0 0 0 0
0 0 0 85 0 0 46 0 2 0 0 32 0
0 4 45 0 64 49 9 0 0 0 0 60
0 0 18 35 0 0 0 0 47 0 0
0 79 0 0 0 0 0 0 94 0
0 0 0 0 0 0 98 0 1
0 66 11 0 9 66 0 0
0 0 0 0 0 0 0
0 0 0 0 0 0
0 0 0 0 16
0 43 0 0
0 36 0
0 0
0
0 33 0 16 0 96 0 0 84 0 0 78 0 0 0 55
0 0 23 0 0 0 0 0 0 0 0 0 0 29 71
0 0 0 9 0 0 52 0 44 71 0 63 0 0
0 0 0 0 0 73 0 0 3 0 0 0 25
0 47 40 0 0 0 0 0 0 0 0 96
0 0 0 0 55 49 0 0 0 63 57
0 0 20 0 0 0 0 0 0 0
0 62 0 0 58 0 44 0 0
0 0 0 0 0 0 0 0
0 0 0 0 0 0 18
0 6 0 71 27 0
0 0 0 66 0
0 24 20 0
0 10 68
0 0
0
0 0 0 0 0 0 0 0 56 25 0 0 0 95 0
0 0 0 0 0 14 0 51 0 84 73 94 76 0
0 0 0 0 0 0 0 27 0 66 56 0 0
0 0 0 0 0 0 0 0 0 0 0 0
0 0 0 0 77 0 5 0 0 0 0
0 0 9 0 44 0 27 0 17 0
0 99 0 0 55 0 0 14 0
0 0 0 0 0 0 24 45
0 0 5 77 0 0 3
0 0 0 0 26 0
0 0 0 30 12
0 0 0 0
0 0 0
0 0
0
0 0 0 0 0 0 0 0 0 0 7 0 0 0
0 99 0 1 0 36 0 0 0 57 0 0 0
0 0 0 0 74 0 31 0 83 0 0 0
0 0 41 0 56 60 0 0 75 0 24
0 0 0 75 0 0 0 0 0 45
0 2 37 0 0 0 30 0 96
0 59 0 0 34 77 71 0
0 0 30 0 7 0 0
0 97 0 47 0 0
0 55 0 4 0
0 17 77 0
0 0 100
0 0
0
0 0 0 0 0 0 0 97 0 0 55 81 8
0 0 0 0 57 47 0 0 0 0 0 0
0 100 0 4 90 0 0 0 46 0 0
0 0 0 0 0 0 0 0 0 28
0 76 0 70 0 10 0 0 56
0 0 0 0 0 0 61 0
0 0 0 0 48 0 31
0 0 0 0 0 0
0 0 0 62 43
0 42 0 0
0 0 0
0 0
0
0 0 68 0 0 0 0 0 0 0 0 0
0 0 0 0 0 0 0 0 0 0 0
0 46 0 0 0 0 25 0 0 0
0 82 0 0 0 0 0 0 0
0 0 0 0 34 0 12 57
0 0 0 0 0 44 0
0 45 0 0 0 40
0 0 0 43 0
0 57 0 0
0 0 72
0 0
0
0 0 0 0 0 0 0 48 0 0 0
0 0 0 65 37 0 90 72 0 98
0 0 0 0 63 0 0 0 0
0 0 0 0 45 0 0 0
0 73 6 0 0 0 64
0 73 0 0 44 0
0 0 0 0 34
0 0 0 0
0 0 70
0 0
0
0 0 0 0 91 31 0 0 0 0
0 0 77 0 0 0 9 0 0
0 0 0 0 0 0 0 53
0 0 0 0 95 49 0
0 35 0 0 0 0
0 40 19 32 90
0 34 99 0
0 0 65
0 69
0
0 70 0 0 19 86 0 0 0
0 0 31 0 0 0 0 0
0 85 85 90 0 0 0
0 0 0 0 0 0
0 82 33 0 0
0 0 0 0
0 15 0
0 0
0
0 0 0 0 0 0 0 0
0 0 100 0 66 0 0
0 0 74 0 0 0
0 0 0 68 0
0 81 16 73
0 83 0
0 0
0
0 45 37 0 84 0 0
0 0 0 0 0 0
0 4 0 0 0
0 0 0 71
0 0 0
0 81
0
0 0 0 0 0 0
0 0 0 0 0
0 0 0 0
0 0 0
0 0
0
0 0 0 0 0
0 0 0 0
0 0 47
0 0
0
0 0 53 0
0 0 56
0 92
0
0 52 0
0 0
0
0 0
0
0
5904 6328 5916 5020 5226 6489 4850 4610 7039 5602 5619 5901 4587 5766 5494 5537 5664 5214 6258 5927 6012 5982 6373 6090 5949 6500 6603 5948 5866 5731
198.78787878787878 184.4367816091954 150.24761904761905 398.6470588235294 498.8454545454546 172.6764705882353 133.1015037593985 143.51053639846742 312.58717105263156 778.0555555555555 118.62333333333333 172.4318181818182 2580.1875 1761.8333333333333 135.28768768768768 837.8355263157895 451.65517241379314 2683.676470588235 601.7307692307693 271.6541666666667 301.1377459749553 510.3690476190476 313.7287644787645 165.9 347.66883116883116 337.8378378378378 536.49375 141.9409090909091 323.0550724637681 1623.7833333333333
